14860
1 0 1 0 0 1 1 0 1 1 0 1 0 1 1 1 0 1 0 1 1 0 0 0 1 1 0 0 1 1 
20 11 20 2 20 5 19 24 19 0 24 20 8 20 17 14 14 17 5 11 19 0 24 19 24 8 19 24 24 24 29 25 6 25 8 20 11 15 11 14 0 14 15 20 5 14 17 20 0 8 0 14 14 5 6 13 17 0 0 14 0 5 8 25 11 11 24 0 0 24 8 20 11 17 9 8 24 20 19 24 13 17 20 17 19 17 17 17 20 29 2 9 17 0 17 24 2 0 29 20 20 17 14 25 19 29 0 11 14 28 14 19 2 11 11 0 24 15 5 5 5 20 25 20 20 0 5 24 0 25 11 0 24 5 8 14 0 5 13 17 0 8 13 14 8 0 25 5 2 5 